p cnf 265 1360
c p weight 14 0 0
c p weight -14 1 0
c p weight 15 1.0 0
c p weight -15 1 0
c p weight 22 0 0
c p weight -22 1 0
c p weight 23 1.0 0
c p weight -23 1 0
c p weight 31 -7.372434514253459e-05 0
c p weight -31 1 0
c p weight 32 -0.9999999972823604 0
c p weight -32 1 0
c p weight 40 0 0
c p weight -40 1 0
c p weight 41 1.0 0
c p weight -41 1 0
c p weight 49 -7.372434514253459e-05 0
c p weight -49 1 0
c p weight 50 -0.9999999972823604 0
c p weight -50 1 0
c p weight 58 0 0
c p weight -58 1 0
c p weight 59 1.0 0
c p weight -59 1 0
c p weight 62 0.7073474801123254 0
c p weight -62 1 0
c p weight 63 -0.7068660002990266 0
c p weight -63 1 0
c p weight 66 0 0
c p weight -66 1 0
c p weight 67 1.0 0
c p weight -67 1 0
c p weight 70 0 0
c p weight -70 1 0
c p weight 71 1.0 0
c p weight -71 1 0
c p weight 76 0 0
c p weight -76 1 0
c p weight 77 1.0 0
c p weight -77 1 0
c p weight 85 -7.372434514253459e-05 0
c p weight -85 1 0
c p weight 86 -0.9999999972823604 0
c p weight -86 1 0
c p weight 94 0 0
c p weight -94 1 0
c p weight 95 1.0 0
c p weight -95 1 0
c p weight 98 0.7073474801123254 0
c p weight -98 1 0
c p weight 99 -0.7068660002990266 0
c p weight -99 1 0
c p weight 102 0 0
c p weight -102 1 0
c p weight 103 1.0 0
c p weight -103 1 0
c p weight 106 0 0
c p weight -106 1 0
c p weight 107 1.0 0
c p weight -107 1 0
c p weight 113 0.7070641328429322 0
c p weight -113 1 0
c p weight 114 0.7071494269580315 0
c p weight -114 1 0
c p weight 123 -7.372434514253459e-05 0
c p weight -123 1 0
c p weight 124 -0.9999999972823604 0
c p weight -124 1 0
c p weight 132 0 0
c p weight -132 1 0
c p weight 133 1.0 0
c p weight -133 1 0
c p weight 136 0.7073474801123254 0
c p weight -136 1 0
c p weight 137 -0.7068660002990266 0
c p weight -137 1 0
c p weight 140 0 0
c p weight -140 1 0
c p weight 141 1.0 0
c p weight -141 1 0
c p weight 144 0 0
c p weight -144 1 0
c p weight 145 1.0 0
c p weight -145 1 0
c p weight 151 0.7070641328429322 0
c p weight -151 1 0
c p weight 152 0.7071494269580315 0
c p weight -152 1 0
c p weight 160 0 0
c p weight -160 1 0
c p weight 161 1.0 0
c p weight -161 1 0
c p weight 164 0.0005593740587488884 0
c p weight -164 1 0
c p weight 165 0.999999843550319 0
c p weight -165 1 0
c p weight 168 0 0
c p weight -168 1 0
c p weight 169 1.0 0
c p weight -169 1 0
c p weight 172 0 0
c p weight -172 1 0
c p weight 173 1.0 0
c p weight -173 1 0
c p weight 178 0 0
c p weight -178 1 0
c p weight 179 1.0 0
c p weight -179 1 0
c p weight 182 0.7073474801123254 0
c p weight -182 1 0
c p weight 183 -0.7068660002990266 0
c p weight -183 1 0
c p weight 186 0 0
c p weight -186 1 0
c p weight 187 1.0 0
c p weight -187 1 0
c p weight 190 0 0
c p weight -190 1 0
c p weight 191 1.0 0
c p weight -191 1 0
c p weight 197 0.7070641328429322 0
c p weight -197 1 0
c p weight 198 0.7071494269580315 0
c p weight -198 1 0
c p weight 206 0 0
c p weight -206 1 0
c p weight 207 1.0 0
c p weight -207 1 0
c p weight 210 0.0005593740587488884 0
c p weight -210 1 0
c p weight 211 0.999999843550319 0
c p weight -211 1 0
c p weight 214 0 0
c p weight -214 1 0
c p weight 215 1.0 0
c p weight -215 1 0
c p weight 218 0 0
c p weight -218 1 0
c p weight 219 1.0 0
c p weight -219 1 0
c p weight 225 0.7070641328429322 0
c p weight -225 1 0
c p weight 226 0.7071494269580315 0
c p weight -226 1 0
c p weight 234 0 0
c p weight -234 1 0
c p weight 235 1.0 0
c p weight -235 1 0
c p weight 238 0.0005593740587488884 0
c p weight -238 1 0
c p weight 239 0.999999843550319 0
c p weight -239 1 0
c p weight 242 0 0
c p weight -242 1 0
c p weight 243 1.0 0
c p weight -243 1 0
c p weight 246 0 0
c p weight -246 1 0
c p weight 247 1.0 0
c p weight -247 1 0
c p weight 252 0 0
c p weight -252 1 0
c p weight 253 1.0 0
c p weight -253 1 0
c p weight 256 0.0005593740587488884 0
c p weight -256 1 0
c p weight 257 0.999999843550319 0
c p weight -257 1 0
c p weight 260 0 0
c p weight -260 1 0
c p weight 261 1.0 0
c p weight -261 1 0
c p weight 264 0 0
c p weight -264 1 0
c p weight 265 1.0 0
c p weight -265 1 0
10 -9 1 0
10 -9 2 0
-10 9 1 0
-10 9 2 0
10 9 -1 -2 0
-10 -9 -1 -2 0
11 1 -2 0
11 -1 2 0
-11 1 2 0
-11 -1 -2 0
12 13 -10 0
12 -10 11 0
-12 13 10 0
-12 10 11 0
12 -10 -1 0
-12 10 -1 0
12 -13 10 1 -11 0
-12 -13 -10 1 -11 0
13 -1 11 0
-13 1 11 0
-14 11 0
13 -14 -1 0
-13 -14 1 0
13 14 1 -11 0
-13 14 -1 -11 0
-15 11 0
13 -15 1 0
-13 -15 -1 0
13 15 -1 -11 0
-13 15 1 -11 0
16 -12 13 0
16 -12 11 0
-16 12 13 0
-16 12 11 0
16 12 -13 -11 0
-16 -12 -13 -11 0
17 13 -11 0
17 -13 11 0
-17 13 11 0
-17 -13 -11 0
18 -16 3 0
18 -16 4 0
-18 16 3 0
-18 16 4 0
18 16 -3 -4 0
-18 -16 -3 -4 0
19 3 -4 0
19 -3 4 0
-19 3 4 0
-19 -3 -4 0
20 21 -18 0
20 -18 19 0
-20 21 18 0
-20 18 19 0
20 -18 -3 0
-20 18 -3 0
20 -21 18 3 -19 0
-20 -21 -18 3 -19 0
21 -3 19 0
-21 3 19 0
-22 19 0
21 -22 -3 0
-21 -22 3 0
21 22 3 -19 0
-21 22 -3 -19 0
-23 19 0
21 -23 3 0
-21 -23 -3 0
21 23 -3 -19 0
-21 23 3 -19 0
24 -20 21 0
24 -20 19 0
-24 20 21 0
-24 20 19 0
24 20 -21 -19 0
-24 -20 -21 -19 0
25 21 -19 0
25 -21 19 0
-25 21 19 0
-25 -21 -19 0
26 -24 13 0
26 -24 25 0
-26 24 13 0
-26 24 25 0
26 -24 21 -17 0
26 -24 -21 17 0
-26 24 21 -17 0
-26 24 -21 17 0
26 24 -13 21 17 -25 0
26 24 -13 -21 -17 -25 0
-26 -24 -13 21 17 -25 0
-26 -24 -13 -21 -17 -25 0
28 13 -21 0
28 -13 21 0
-28 13 21 0
-28 -13 -21 0
27 17 -25 0
27 -17 25 0
-27 17 25 0
-27 -17 -25 0
29 -26 28 0
29 -26 25 0
-29 26 28 0
-29 26 25 0
29 -30 -26 0
-29 -30 26 0
29 30 26 -28 -25 0
-29 30 -26 -28 -25 0
30 28 -25 0
-30 28 25 0
-31 28 0
30 -31 -25 0
-30 -31 25 0
30 31 -28 25 0
-30 31 -28 -25 0
-32 28 0
30 -32 25 0
-30 -32 -25 0
30 32 -28 -25 0
-30 32 -28 25 0
33 -29 13 0
33 -29 30 0
-33 29 13 0
-33 29 30 0
33 -29 28 -27 0
33 -29 -28 27 0
-33 29 28 -27 0
-33 29 -28 27 0
33 29 -13 28 27 -30 0
33 29 -13 -28 -27 -30 0
-33 -29 -13 28 27 -30 0
-33 -29 -13 -28 -27 -30 0
35 13 -28 0
35 -13 28 0
-35 13 28 0
-35 -13 -28 0
34 27 -30 0
34 -27 30 0
-34 27 30 0
-34 -27 -30 0
36 -33 5 0
36 -33 6 0
-36 33 5 0
-36 33 6 0
36 33 -5 -6 0
-36 -33 -5 -6 0
37 5 -6 0
37 -5 6 0
-37 5 6 0
-37 -5 -6 0
38 39 -36 0
38 -36 37 0
-38 39 36 0
-38 36 37 0
38 -36 -5 0
-38 36 -5 0
38 -39 36 5 -37 0
-38 -39 -36 5 -37 0
39 -5 37 0
-39 5 37 0
-40 37 0
39 -40 -5 0
-39 -40 5 0
39 40 5 -37 0
-39 40 -5 -37 0
-41 37 0
39 -41 5 0
-39 -41 -5 0
39 41 -5 -37 0
-39 41 5 -37 0
42 -38 39 0
42 -38 37 0
-42 38 39 0
-42 38 37 0
42 38 -39 -37 0
-42 -38 -39 -37 0
43 39 -37 0
43 -39 37 0
-43 39 37 0
-43 -39 -37 0
44 -42 13 0
44 -42 43 0
-44 42 13 0
-44 42 43 0
44 -42 39 -34 0
44 -42 -39 34 0
-44 42 39 -34 0
-44 42 -39 34 0
44 42 -13 39 34 -43 0
44 42 -13 -39 -34 -43 0
-44 -42 -13 39 34 -43 0
-44 -42 -13 -39 -34 -43 0
46 13 -39 0
46 -13 39 0
-46 13 39 0
-46 -13 -39 0
45 34 -43 0
45 -34 43 0
-45 34 43 0
-45 -34 -43 0
47 -44 46 0
47 -44 43 0
-47 44 46 0
-47 44 43 0
47 -48 -44 0
-47 -48 44 0
47 48 44 -46 -43 0
-47 48 -44 -46 -43 0
48 46 -43 0
-48 46 43 0
-49 46 0
48 -49 -43 0
-48 -49 43 0
48 49 -46 43 0
-48 49 -46 -43 0
-50 46 0
48 -50 43 0
-48 -50 -43 0
48 50 -46 -43 0
-48 50 -46 43 0
51 -47 13 0
51 -47 48 0
-51 47 13 0
-51 47 48 0
51 -47 46 -45 0
51 -47 -46 45 0
-51 47 46 -45 0
-51 47 -46 45 0
51 47 -13 46 45 -48 0
51 47 -13 -46 -45 -48 0
-51 -47 -13 46 45 -48 0
-51 -47 -13 -46 -45 -48 0
53 13 -46 0
53 -13 46 0
-53 13 46 0
-53 -13 -46 0
52 45 -48 0
52 -45 48 0
-52 45 48 0
-52 -45 -48 0
54 -51 13 0
54 -51 52 0
-54 51 13 0
-54 51 52 0
54 51 -13 -52 0
-54 -51 -13 -52 0
55 13 -52 0
55 -13 52 0
-55 13 52 0
-55 -13 -52 0
56 57 -54 0
56 -54 55 0
-56 57 54 0
-56 54 55 0
56 -54 -13 0
-56 54 -13 0
56 -57 54 13 -55 0
-56 -57 -54 13 -55 0
57 -13 55 0
-57 13 55 0
-58 55 0
57 -58 -13 0
-57 -58 13 0
57 58 13 -55 0
-57 58 -13 -55 0
-59 55 0
57 -59 13 0
-57 -59 -13 0
57 59 -13 -55 0
-57 59 13 -55 0
60 -56 57 0
60 -56 55 0
-60 56 57 0
-60 56 55 0
60 -61 -56 0
-60 -61 56 0
60 61 56 -57 -55 0
-60 61 -56 -57 -55 0
61 57 -55 0
-61 57 55 0
-62 57 0
61 -62 -55 0
-61 -62 55 0
61 62 -57 55 0
-61 62 -57 -55 0
-63 57 0
61 -63 55 0
-61 -63 -55 0
61 63 -57 -55 0
-61 63 -57 55 0
64 65 -60 0
64 -60 61 0
-64 65 60 0
-64 60 61 0
64 -60 -57 0
-64 60 -57 0
64 -65 60 57 -61 0
-64 -65 -60 57 -61 0
65 -57 61 0
-65 57 61 0
-66 61 0
65 -66 -57 0
-65 -66 57 0
65 66 57 -61 0
-65 66 -57 -61 0
-67 61 0
65 -67 57 0
-65 -67 -57 0
65 67 -57 -61 0
-65 67 57 -61 0
68 -64 65 0
68 -64 61 0
-68 64 65 0
-68 64 61 0
68 -69 -64 0
-68 -69 64 0
68 69 64 -65 -61 0
-68 69 -64 -65 -61 0
69 65 -61 0
-69 65 61 0
-70 65 0
69 -70 -61 0
-69 -70 61 0
69 70 -65 61 0
-69 70 -65 -61 0
-71 65 0
69 -71 61 0
-69 -71 -61 0
69 71 -65 -61 0
-69 71 -65 61 0
72 -68 7 0
72 -68 8 0
-72 68 7 0
-72 68 8 0
72 68 -7 -8 0
-72 -68 -7 -8 0
73 7 -8 0
73 -7 8 0
-73 7 8 0
-73 -7 -8 0
74 75 -72 0
74 -72 73 0
-74 75 72 0
-74 72 73 0
74 -72 -7 0
-74 72 -7 0
74 -75 72 7 -73 0
-74 -75 -72 7 -73 0
75 -7 73 0
-75 7 73 0
-76 73 0
75 -76 -7 0
-75 -76 7 0
75 76 7 -73 0
-75 76 -7 -73 0
-77 73 0
75 -77 7 0
-75 -77 -7 0
75 77 -7 -73 0
-75 77 7 -73 0
78 -74 75 0
78 -74 73 0
-78 74 75 0
-78 74 73 0
78 74 -75 -73 0
-78 -74 -75 -73 0
79 75 -73 0
79 -75 73 0
-79 75 73 0
-79 -75 -73 0
80 -78 35 0
80 -78 79 0
-80 78 35 0
-80 78 79 0
80 -78 75 -30 0
80 -78 -75 30 0
-80 78 75 -30 0
-80 78 -75 30 0
80 78 -35 75 30 -79 0
80 78 -35 -75 -30 -79 0
-80 -78 -35 75 30 -79 0
-80 -78 -35 -75 -30 -79 0
82 35 -75 0
82 -35 75 0
-82 35 75 0
-82 -35 -75 0
81 30 -79 0
81 -30 79 0
-81 30 79 0
-81 -30 -79 0
83 -80 82 0
83 -80 79 0
-83 80 82 0
-83 80 79 0
83 -84 -80 0
-83 -84 80 0
83 84 80 -82 -79 0
-83 84 -80 -82 -79 0
84 82 -79 0
-84 82 79 0
-85 82 0
84 -85 -79 0
-84 -85 79 0
84 85 -82 79 0
-84 85 -82 -79 0
-86 82 0
84 -86 79 0
-84 -86 -79 0
84 86 -82 -79 0
-84 86 -82 79 0
87 -83 35 0
87 -83 84 0
-87 83 35 0
-87 83 84 0
87 -83 82 -81 0
87 -83 -82 81 0
-87 83 82 -81 0
-87 83 -82 81 0
87 83 -35 82 81 -84 0
87 83 -35 -82 -81 -84 0
-87 -83 -35 82 81 -84 0
-87 -83 -35 -82 -81 -84 0
89 35 -82 0
89 -35 82 0
-89 35 82 0
-89 -35 -82 0
88 81 -84 0
88 -81 84 0
-88 81 84 0
-88 -81 -84 0
90 -87 35 0
90 -87 88 0
-90 87 35 0
-90 87 88 0
90 87 -35 -88 0
-90 -87 -35 -88 0
91 35 -88 0
91 -35 88 0
-91 35 88 0
-91 -35 -88 0
92 93 -90 0
92 -90 91 0
-92 93 90 0
-92 90 91 0
92 -90 -35 0
-92 90 -35 0
92 -93 90 35 -91 0
-92 -93 -90 35 -91 0
93 -35 91 0
-93 35 91 0
-94 91 0
93 -94 -35 0
-93 -94 35 0
93 94 35 -91 0
-93 94 -35 -91 0
-95 91 0
93 -95 35 0
-93 -95 -35 0
93 95 -35 -91 0
-93 95 35 -91 0
96 -92 93 0
96 -92 91 0
-96 92 93 0
-96 92 91 0
96 -97 -92 0
-96 -97 92 0
96 97 92 -93 -91 0
-96 97 -92 -93 -91 0
97 93 -91 0
-97 93 91 0
-98 93 0
97 -98 -91 0
-97 -98 91 0
97 98 -93 91 0
-97 98 -93 -91 0
-99 93 0
97 -99 91 0
-97 -99 -91 0
97 99 -93 -91 0
-97 99 -93 91 0
100 101 -96 0
100 -96 97 0
-100 101 96 0
-100 96 97 0
100 -96 -93 0
-100 96 -93 0
100 -101 96 93 -97 0
-100 -101 -96 93 -97 0
101 -93 97 0
-101 93 97 0
-102 97 0
101 -102 -93 0
-101 -102 93 0
101 102 93 -97 0
-101 102 -93 -97 0
-103 97 0
101 -103 93 0
-101 -103 -93 0
101 103 -93 -97 0
-101 103 93 -97 0
104 -100 101 0
104 -100 97 0
-104 100 101 0
-104 100 97 0
104 -105 -100 0
-104 -105 100 0
104 105 100 -101 -97 0
-104 105 -100 -101 -97 0
105 101 -97 0
-105 101 97 0
-106 101 0
105 -106 -97 0
-105 -106 97 0
105 106 -101 97 0
-105 106 -101 -97 0
-107 101 0
105 -107 97 0
-105 -107 -97 0
105 107 -101 -97 0
-105 107 -101 97 0
108 -104 65 0
108 -104 105 0
-108 104 65 0
-108 104 105 0
108 -104 101 -69 0
108 -104 -101 69 0
-108 104 101 -69 0
-108 104 -101 69 0
108 104 -65 101 69 -105 0
108 104 -65 -101 -69 -105 0
-108 -104 -65 101 69 -105 0
-108 -104 -65 -101 -69 -105 0
110 65 -101 0
110 -65 101 0
-110 65 101 0
-110 -65 -101 0
109 69 -105 0
109 -69 105 0
-109 69 105 0
-109 -69 -105 0
111 -108 110 0
111 -108 105 0
-111 108 110 0
-111 108 105 0
111 -112 -108 0
-111 -112 108 0
111 112 108 -110 -105 0
-111 112 -108 -110 -105 0
112 110 -105 0
-112 110 105 0
-113 110 0
112 -113 -105 0
-112 -113 105 0
112 113 -110 105 0
-112 113 -110 -105 0
-114 110 0
112 -114 105 0
-112 -114 -105 0
112 114 -110 -105 0
-112 114 -110 105 0
115 -111 65 0
115 -111 112 0
-115 111 65 0
-115 111 112 0
115 -111 110 -109 0
115 -111 -110 109 0
-115 111 110 -109 0
-115 111 -110 109 0
115 111 -65 110 109 -112 0
115 111 -65 -110 -109 -112 0
-115 -111 -65 110 109 -112 0
-115 -111 -65 -110 -109 -112 0
117 65 -110 0
117 -65 110 0
-117 65 110 0
-117 -65 -110 0
116 109 -112 0
116 -109 112 0
-116 109 112 0
-116 -109 -112 0
118 -115 53 0
118 -115 84 0
-118 115 53 0
-118 115 84 0
118 -115 89 -48 0
118 -115 -89 48 0
-118 115 89 -48 0
-118 115 -89 48 0
118 115 -53 89 48 -84 0
118 115 -53 -89 -48 -84 0
-118 -115 -53 89 48 -84 0
-118 -115 -53 -89 -48 -84 0
120 53 -89 0
120 -53 89 0
-120 53 89 0
-120 -53 -89 0
119 48 -84 0
119 -48 84 0
-119 48 84 0
-119 -48 -84 0
121 -118 120 0
121 -118 84 0
-121 118 120 0
-121 118 84 0
121 -122 -118 0
-121 -122 118 0
121 122 118 -120 -84 0
-121 122 -118 -120 -84 0
122 120 -84 0
-122 120 84 0
-123 120 0
122 -123 -84 0
-122 -123 84 0
122 123 -120 84 0
-122 123 -120 -84 0
-124 120 0
122 -124 84 0
-122 -124 -84 0
122 124 -120 -84 0
-122 124 -120 84 0
125 -121 53 0
125 -121 122 0
-125 121 53 0
-125 121 122 0
125 -121 120 -119 0
125 -121 -120 119 0
-125 121 120 -119 0
-125 121 -120 119 0
125 121 -53 120 119 -122 0
125 121 -53 -120 -119 -122 0
-125 -121 -53 120 119 -122 0
-125 -121 -53 -120 -119 -122 0
127 53 -120 0
127 -53 120 0
-127 53 120 0
-127 -53 -120 0
126 119 -122 0
126 -119 122 0
-126 119 122 0
-126 -119 -122 0
128 -125 53 0
128 -125 126 0
-128 125 53 0
-128 125 126 0
128 125 -53 -126 0
-128 -125 -53 -126 0
129 53 -126 0
129 -53 126 0
-129 53 126 0
-129 -53 -126 0
130 131 -128 0
130 -128 129 0
-130 131 128 0
-130 128 129 0
130 -128 -53 0
-130 128 -53 0
130 -131 128 53 -129 0
-130 -131 -128 53 -129 0
131 -53 129 0
-131 53 129 0
-132 129 0
131 -132 -53 0
-131 -132 53 0
131 132 53 -129 0
-131 132 -53 -129 0
-133 129 0
131 -133 53 0
-131 -133 -53 0
131 133 -53 -129 0
-131 133 53 -129 0
134 -130 131 0
134 -130 129 0
-134 130 131 0
-134 130 129 0
134 -135 -130 0
-134 -135 130 0
134 135 130 -131 -129 0
-134 135 -130 -131 -129 0
135 131 -129 0
-135 131 129 0
-136 131 0
135 -136 -129 0
-135 -136 129 0
135 136 -131 129 0
-135 136 -131 -129 0
-137 131 0
135 -137 129 0
-135 -137 -129 0
135 137 -131 -129 0
-135 137 -131 129 0
138 139 -134 0
138 -134 135 0
-138 139 134 0
-138 134 135 0
138 -134 -131 0
-138 134 -131 0
138 -139 134 131 -135 0
-138 -139 -134 131 -135 0
139 -131 135 0
-139 131 135 0
-140 135 0
139 -140 -131 0
-139 -140 131 0
139 140 131 -135 0
-139 140 -131 -135 0
-141 135 0
139 -141 131 0
-139 -141 -131 0
139 141 -131 -135 0
-139 141 131 -135 0
142 -138 139 0
142 -138 135 0
-142 138 139 0
-142 138 135 0
142 -143 -138 0
-142 -143 138 0
142 143 138 -139 -135 0
-142 143 -138 -139 -135 0
143 139 -135 0
-143 139 135 0
-144 139 0
143 -144 -135 0
-143 -144 135 0
143 144 -139 135 0
-143 144 -139 -135 0
-145 139 0
143 -145 135 0
-143 -145 -135 0
143 145 -139 -135 0
-143 145 -139 135 0
146 -142 65 0
146 -142 143 0
-146 142 65 0
-146 142 143 0
146 -142 139 -116 0
146 -142 -139 116 0
-146 142 139 -116 0
-146 142 -139 116 0
146 142 -65 139 116 -143 0
146 142 -65 -139 -116 -143 0
-146 -142 -65 139 116 -143 0
-146 -142 -65 -139 -116 -143 0
148 65 -139 0
148 -65 139 0
-148 65 139 0
-148 -65 -139 0
147 116 -143 0
147 -116 143 0
-147 116 143 0
-147 -116 -143 0
149 -146 148 0
149 -146 143 0
-149 146 148 0
-149 146 143 0
149 -150 -146 0
-149 -150 146 0
149 150 146 -148 -143 0
-149 150 -146 -148 -143 0
150 148 -143 0
-150 148 143 0
-151 148 0
150 -151 -143 0
-150 -151 143 0
150 151 -148 143 0
-150 151 -148 -143 0
-152 148 0
150 -152 143 0
-150 -152 -143 0
150 152 -148 -143 0
-150 152 -148 143 0
153 -149 65 0
153 -149 150 0
-153 149 65 0
-153 149 150 0
153 -149 148 -147 0
153 -149 -148 147 0
-153 149 148 -147 0
-153 149 -148 147 0
153 149 -65 148 147 -150 0
153 149 -65 -148 -147 -150 0
-153 -149 -65 148 147 -150 0
-153 -149 -65 -148 -147 -150 0
155 65 -148 0
155 -65 148 0
-155 65 148 0
-155 -65 -148 0
154 147 -150 0
154 -147 150 0
-154 147 150 0
-154 -147 -150 0
156 -153 65 0
156 -153 154 0
-156 153 65 0
-156 153 154 0
156 153 -65 -154 0
-156 -153 -65 -154 0
157 65 -154 0
157 -65 154 0
-157 65 154 0
-157 -65 -154 0
158 159 -156 0
158 -156 157 0
-158 159 156 0
-158 156 157 0
158 -156 -65 0
-158 156 -65 0
158 -159 156 65 -157 0
-158 -159 -156 65 -157 0
159 -65 157 0
-159 65 157 0
-160 157 0
159 -160 -65 0
-159 -160 65 0
159 160 65 -157 0
-159 160 -65 -157 0
-161 157 0
159 -161 65 0
-159 -161 -65 0
159 161 -65 -157 0
-159 161 65 -157 0
162 -158 159 0
162 -158 157 0
-162 158 159 0
-162 158 157 0
162 -163 -158 0
-162 -163 158 0
162 163 158 -159 -157 0
-162 163 -158 -159 -157 0
163 159 -157 0
-163 159 157 0
-164 159 0
163 -164 -157 0
-163 -164 157 0
163 164 -159 157 0
-163 164 -159 -157 0
-165 159 0
163 -165 157 0
-163 -165 -157 0
163 165 -159 -157 0
-163 165 -159 157 0
166 167 -162 0
166 -162 163 0
-166 167 162 0
-166 162 163 0
166 -162 -159 0
-166 162 -159 0
166 -167 162 159 -163 0
-166 -167 -162 159 -163 0
167 -159 163 0
-167 159 163 0
-168 163 0
167 -168 -159 0
-167 -168 159 0
167 168 159 -163 0
-167 168 -159 -163 0
-169 163 0
167 -169 159 0
-167 -169 -159 0
167 169 -159 -163 0
-167 169 159 -163 0
170 -166 167 0
170 -166 163 0
-170 166 167 0
-170 166 163 0
170 -171 -166 0
-170 -171 166 0
170 171 166 -167 -163 0
-170 171 -166 -167 -163 0
171 167 -163 0
-171 167 163 0
-172 167 0
171 -172 -163 0
-171 -172 163 0
171 172 -167 163 0
-171 172 -167 -163 0
-173 167 0
171 -173 163 0
-171 -173 -163 0
171 173 -167 -163 0
-171 173 -167 163 0
174 -170 127 0
174 -170 122 0
-174 170 127 0
-174 170 122 0
174 170 -127 -122 0
-174 -170 -127 -122 0
175 127 -122 0
175 -127 122 0
-175 127 122 0
-175 -127 -122 0
176 177 -174 0
176 -174 175 0
-176 177 174 0
-176 174 175 0
176 -174 -127 0
-176 174 -127 0
176 -177 174 127 -175 0
-176 -177 -174 127 -175 0
177 -127 175 0
-177 127 175 0
-178 175 0
177 -178 -127 0
-177 -178 127 0
177 178 127 -175 0
-177 178 -127 -175 0
-179 175 0
177 -179 127 0
-177 -179 -127 0
177 179 -127 -175 0
-177 179 127 -175 0
180 -176 177 0
180 -176 175 0
-180 176 177 0
-180 176 175 0
180 -181 -176 0
-180 -181 176 0
180 181 176 -177 -175 0
-180 181 -176 -177 -175 0
181 177 -175 0
-181 177 175 0
-182 177 0
181 -182 -175 0
-181 -182 175 0
181 182 -177 175 0
-181 182 -177 -175 0
-183 177 0
181 -183 175 0
-181 -183 -175 0
181 183 -177 -175 0
-181 183 -177 175 0
184 185 -180 0
184 -180 181 0
-184 185 180 0
-184 180 181 0
184 -180 -177 0
-184 180 -177 0
184 -185 180 177 -181 0
-184 -185 -180 177 -181 0
185 -177 181 0
-185 177 181 0
-186 181 0
185 -186 -177 0
-185 -186 177 0
185 186 177 -181 0
-185 186 -177 -181 0
-187 181 0
185 -187 177 0
-185 -187 -177 0
185 187 -177 -181 0
-185 187 177 -181 0
188 -184 185 0
188 -184 181 0
-188 184 185 0
-188 184 181 0
188 -189 -184 0
-188 -189 184 0
188 189 184 -185 -181 0
-188 189 -184 -185 -181 0
189 185 -181 0
-189 185 181 0
-190 185 0
189 -190 -181 0
-189 -190 181 0
189 190 -185 181 0
-189 190 -185 -181 0
-191 185 0
189 -191 181 0
-189 -191 -181 0
189 191 -185 -181 0
-189 191 -185 181 0
192 -188 117 0
192 -188 189 0
-192 188 117 0
-192 188 189 0
192 -188 185 -112 0
192 -188 -185 112 0
-192 188 185 -112 0
-192 188 -185 112 0
192 188 -117 185 112 -189 0
192 188 -117 -185 -112 -189 0
-192 -188 -117 185 112 -189 0
-192 -188 -117 -185 -112 -189 0
194 117 -185 0
194 -117 185 0
-194 117 185 0
-194 -117 -185 0
193 112 -189 0
193 -112 189 0
-193 112 189 0
-193 -112 -189 0
195 -192 194 0
195 -192 189 0
-195 192 194 0
-195 192 189 0
195 -196 -192 0
-195 -196 192 0
195 196 192 -194 -189 0
-195 196 -192 -194 -189 0
196 194 -189 0
-196 194 189 0
-197 194 0
196 -197 -189 0
-196 -197 189 0
196 197 -194 189 0
-196 197 -194 -189 0
-198 194 0
196 -198 189 0
-196 -198 -189 0
196 198 -194 -189 0
-196 198 -194 189 0
199 -195 117 0
199 -195 196 0
-199 195 117 0
-199 195 196 0
199 -195 194 -193 0
199 -195 -194 193 0
-199 195 194 -193 0
-199 195 -194 193 0
199 195 -117 194 193 -196 0
199 195 -117 -194 -193 -196 0
-199 -195 -117 194 193 -196 0
-199 -195 -117 -194 -193 -196 0
201 117 -194 0
201 -117 194 0
-201 117 194 0
-201 -117 -194 0
200 193 -196 0
200 -193 196 0
-200 193 196 0
-200 -193 -196 0
202 -199 117 0
202 -199 200 0
-202 199 117 0
-202 199 200 0
202 199 -117 -200 0
-202 -199 -117 -200 0
203 117 -200 0
203 -117 200 0
-203 117 200 0
-203 -117 -200 0
204 205 -202 0
204 -202 203 0
-204 205 202 0
-204 202 203 0
204 -202 -117 0
-204 202 -117 0
204 -205 202 117 -203 0
-204 -205 -202 117 -203 0
205 -117 203 0
-205 117 203 0
-206 203 0
205 -206 -117 0
-205 -206 117 0
205 206 117 -203 0
-205 206 -117 -203 0
-207 203 0
205 -207 117 0
-205 -207 -117 0
205 207 -117 -203 0
-205 207 117 -203 0
208 -204 205 0
208 -204 203 0
-208 204 205 0
-208 204 203 0
208 -209 -204 0
-208 -209 204 0
208 209 204 -205 -203 0
-208 209 -204 -205 -203 0
209 205 -203 0
-209 205 203 0
-210 205 0
209 -210 -203 0
-209 -210 203 0
209 210 -205 203 0
-209 210 -205 -203 0
-211 205 0
209 -211 203 0
-209 -211 -203 0
209 211 -205 -203 0
-209 211 -205 203 0
212 213 -208 0
212 -208 209 0
-212 213 208 0
-212 208 209 0
212 -208 -205 0
-212 208 -205 0
212 -213 208 205 -209 0
-212 -213 -208 205 -209 0
213 -205 209 0
-213 205 209 0
-214 209 0
213 -214 -205 0
-213 -214 205 0
213 214 205 -209 0
-213 214 -205 -209 0
-215 209 0
213 -215 205 0
-213 -215 -205 0
213 215 -205 -209 0
-213 215 205 -209 0
216 -212 213 0
216 -212 209 0
-216 212 213 0
-216 212 209 0
216 -217 -212 0
-216 -217 212 0
216 217 212 -213 -209 0
-216 217 -212 -213 -209 0
217 213 -209 0
-217 213 209 0
-218 213 0
217 -218 -209 0
-217 -218 209 0
217 218 -213 209 0
-217 218 -213 -209 0
-219 213 0
217 -219 209 0
-217 -219 -209 0
217 219 -213 -209 0
-217 219 -213 209 0
220 -216 155 0
220 -216 196 0
-220 216 155 0
-220 216 196 0
220 -216 201 -150 0
220 -216 -201 150 0
-220 216 201 -150 0
-220 216 -201 150 0
220 216 -155 201 150 -196 0
220 216 -155 -201 -150 -196 0
-220 -216 -155 201 150 -196 0
-220 -216 -155 -201 -150 -196 0
222 155 -201 0
222 -155 201 0
-222 155 201 0
-222 -155 -201 0
221 150 -196 0
221 -150 196 0
-221 150 196 0
-221 -150 -196 0
223 -220 222 0
223 -220 196 0
-223 220 222 0
-223 220 196 0
223 -224 -220 0
-223 -224 220 0
223 224 220 -222 -196 0
-223 224 -220 -222 -196 0
224 222 -196 0
-224 222 196 0
-225 222 0
224 -225 -196 0
-224 -225 196 0
224 225 -222 196 0
-224 225 -222 -196 0
-226 222 0
224 -226 196 0
-224 -226 -196 0
224 226 -222 -196 0
-224 226 -222 196 0
227 -223 155 0
227 -223 224 0
-227 223 155 0
-227 223 224 0
227 -223 222 -221 0
227 -223 -222 221 0
-227 223 222 -221 0
-227 223 -222 221 0
227 223 -155 222 221 -224 0
227 223 -155 -222 -221 -224 0
-227 -223 -155 222 221 -224 0
-227 -223 -155 -222 -221 -224 0
229 155 -222 0
229 -155 222 0
-229 155 222 0
-229 -155 -222 0
228 221 -224 0
228 -221 224 0
-228 221 224 0
-228 -221 -224 0
230 -227 155 0
230 -227 228 0
-230 227 155 0
-230 227 228 0
230 227 -155 -228 0
-230 -227 -155 -228 0
231 155 -228 0
231 -155 228 0
-231 155 228 0
-231 -155 -228 0
232 233 -230 0
232 -230 231 0
-232 233 230 0
-232 230 231 0
232 -230 -155 0
-232 230 -155 0
232 -233 230 155 -231 0
-232 -233 -230 155 -231 0
233 -155 231 0
-233 155 231 0
-234 231 0
233 -234 -155 0
-233 -234 155 0
233 234 155 -231 0
-233 234 -155 -231 0
-235 231 0
233 -235 155 0
-233 -235 -155 0
233 235 -155 -231 0
-233 235 155 -231 0
236 -232 233 0
236 -232 231 0
-236 232 233 0
-236 232 231 0
236 -237 -232 0
-236 -237 232 0
236 237 232 -233 -231 0
-236 237 -232 -233 -231 0
237 233 -231 0
-237 233 231 0
-238 233 0
237 -238 -231 0
-237 -238 231 0
237 238 -233 231 0
-237 238 -233 -231 0
-239 233 0
237 -239 231 0
-237 -239 -231 0
237 239 -233 -231 0
-237 239 -233 231 0
240 241 -236 0
240 -236 237 0
-240 241 236 0
-240 236 237 0
240 -236 -233 0
-240 236 -233 0
240 -241 236 233 -237 0
-240 -241 -236 233 -237 0
241 -233 237 0
-241 233 237 0
-242 237 0
241 -242 -233 0
-241 -242 233 0
241 242 233 -237 0
-241 242 -233 -237 0
-243 237 0
241 -243 233 0
-241 -243 -233 0
241 243 -233 -237 0
-241 243 233 -237 0
244 -240 241 0
244 -240 237 0
-244 240 241 0
-244 240 237 0
244 -245 -240 0
-244 -245 240 0
244 245 240 -241 -237 0
-244 245 -240 -241 -237 0
245 241 -237 0
-245 241 237 0
-246 241 0
245 -246 -237 0
-245 -246 237 0
245 246 -241 237 0
-245 246 -241 -237 0
-247 241 0
245 -247 237 0
-245 -247 -237 0
245 247 -241 -237 0
-245 247 -241 237 0
248 -244 229 0
248 -244 224 0
-248 244 229 0
-248 244 224 0
248 244 -229 -224 0
-248 -244 -229 -224 0
249 229 -224 0
249 -229 224 0
-249 229 224 0
-249 -229 -224 0
250 251 -248 0
250 -248 249 0
-250 251 248 0
-250 248 249 0
250 -248 -229 0
-250 248 -229 0
250 -251 248 229 -249 0
-250 -251 -248 229 -249 0
251 -229 249 0
-251 229 249 0
-252 249 0
251 -252 -229 0
-251 -252 229 0
251 252 229 -249 0
-251 252 -229 -249 0
-253 249 0
251 -253 229 0
-251 -253 -229 0
251 253 -229 -249 0
-251 253 229 -249 0
254 -250 251 0
254 -250 249 0
-254 250 251 0
-254 250 249 0
254 -255 -250 0
-254 -255 250 0
254 255 250 -251 -249 0
-254 255 -250 -251 -249 0
255 251 -249 0
-255 251 249 0
-256 251 0
255 -256 -249 0
-255 -256 249 0
255 256 -251 249 0
-255 256 -251 -249 0
-257 251 0
255 -257 249 0
-255 -257 -249 0
255 257 -251 -249 0
-255 257 -251 249 0
258 259 -254 0
258 -254 255 0
-258 259 254 0
-258 254 255 0
258 -254 -251 0
-258 254 -251 0
258 -259 254 251 -255 0
-258 -259 -254 251 -255 0
259 -251 255 0
-259 251 255 0
-260 255 0
259 -260 -251 0
-259 -260 251 0
259 260 251 -255 0
-259 260 -251 -255 0
-261 255 0
259 -261 251 0
-259 -261 -251 0
259 261 -251 -255 0
-259 261 251 -255 0
262 -258 259 0
262 -258 255 0
-262 258 259 0
-262 258 255 0
262 -263 -258 0
-262 -263 258 0
262 263 258 -259 -255 0
-262 263 -258 -259 -255 0
263 259 -255 0
-263 259 255 0
-264 259 0
263 -264 -255 0
-263 -264 255 0
263 264 -259 255 0
-263 264 -259 -255 0
-265 259 0
263 -265 255 0
-263 -265 -255 0
263 265 -259 -255 0
-263 265 -259 255 0
